86 300 61 3 63 10 98 46 38 72 50 59 27 63 57 96 73 42 55 69 10 70 89 55 94 79 13 48 97 1 27 94 38 39 97 1 100 46 46 89 17 47 47 43 10 55 90 34 48 44 3 10 65 91 64 59 22 28 58 18 28 36 12 66 26 60 18 25 5 63 65 73 62 11 15 71 18 4 4 65 99 58 74 16 1 90 26 22 